(set-logic BV) (define-fun origCir ((i_4 Bool) (i_3 Bool) (i_2 Bool) (i_6 Bool) (i_7 Bool)) Bool (and (and (not (and (not (and i_7 i_6)) (not i_3))) i_4) (not (and (and (xor (not i_2) i_6) i_3) (or (not i_6) i_7))))) (synth-fun skel ((i_4 Bool) (i_3 Bool) (i_2 Bool) (i_6 Bool) (i_7 Bool)) Bool) (declare-var i_4 Bool) (declare-var i_3 Bool) (declare-var i_2 Bool) (declare-var i_6 Bool) (declare-var i_7 Bool) (constraint (= (origCir i_4 i_3 i_2 i_6 i_7) (skel i_4 i_3 i_2 i_6 i_7))) (check-synth)
